p tw 50 74
8 43
3 4
9 42
26 27
35 36
44 45
32 49
12 13
21 22
33 48
22 23
31 32
8 9
5 16
40 41
21 40
6 45
7 44
17 18
49 50
27 28
25 26
36 37
31 50
13 14
45 46
32 33
41 42
18 19
15 26
4 5
5 6
3 18
46 47
4 17
14 15
23 24
9 10
11 30
1 2
10 11
14 27
19 20
28 29
37 38
1 20
2 19
6 7
15 16
24 25
47 48
13 28
33 34
42 43
24 37
43 44
25 36
10 41
20 21
29 30
38 39
35 46
39 40
48 49
12 29
34 35
22 39
2 3
11 12
23 38
7 8
34 47
30 31
16 17
